NAME : Instance 22
COMMENT : Comment 22
TYPE : TSP
DIMENSION: 30
EDGE_WEIGHT_TYPE : EUC_2D
NODE_COORD_SECTION
  1 683 1456
  2 1180 1949
  3 958 1865
  4 514 1079
  5 46 1685
  6 1787 802
  7 1183 1756
  8 1547 1785
  9 881 171
  10 115 591
  11 1385 324
  12 162 1967
  13 251 1379
  14 1939 606
  15 455 361
  16 923 1216
  17 1713 1192
  18 514 1490
  19 1784 1605
  20 474 1291
  21 552 784
  22 1982 455
  23 1151 1121
  24 562 1079
  25 350 1047
  26 778 417
  27 156 1985
  28 1232 179
  29 252 1510
  30 1248 87
EOF
